 Minimize
[ 1.0000000000000000 Z0 * Z17  ]
Subject to
c1: [ 0.2200000000000000 Z0 * Z1  + 0.2000000000000000 Z0 * Z2  + 0.1900000000000000 Z0 * Z3  + 0.2500000000000000 Z0 * Z4  + 0.1500000000000000 Z0 * Z5  + 0.1100000000000000 Z0 * Z6  + 0.1200000000000000 Z0 * Z7  + 0.1300000000000000 Z0 * Z8  + 1.0000000000000000 Z0 * Z9  ] >= 2.500000
c2: [ -1.4600000000000000 Z0 * Z1 -1.3000000000000000 Z0 * Z3  + 1.8200000000000001 Z0 * Z4 -1.1499999999999999 Z0 * Z5  + 0.8000000000000000 Z0 * Z7  + 1.0000000000000000 Z0 * Z10  ] >= 1.100000
c3: [ 1.2900000000000000 Z0 * Z1 -0.8900000000000000 Z0 * Z2 -1.1599999999999999 Z0 * Z5 -0.9600000000000000 Z0 * Z6 -0.4900000000000000 Z0 * Z8  + 1.0000000000000000 Z0 * Z11  ] >= -3.100000
c4: [ -1.1000000000000001 Z0 * Z1 -1.0600000000000001 Z0 * Z2  + 0.9500000000000000 Z0 * Z3 -0.5400000000000000 Z0 * Z4 -1.7800000000000000 Z0 * Z6 -0.4100000000000000 Z0 * Z7  + 1.0000000000000000 Z0 * Z12  ] >= -3.500000
c5: [ -1.4299999999999999 Z0 * Z4  + 1.5100000000000000 Z0 * Z5  + 0.5900000000000000 Z0 * Z6 -0.3300000000000000 Z0 * Z7 -0.4300000000000000 Z0 * Z8  + 1.0000000000000000 Z0 * Z13  ] >= 1.300000
c6: [ -1.7200000000000000 Z0 * Z2 -0.3300000000000000 Z0 * Z3  + 1.6200000000000001 Z0 * Z5  + 1.2400000000000000 Z0 * Z6  + 0.2100000000000000 Z0 * Z7 -0.2600000000000000 Z0 * Z8  + 1.0000000000000000 Z0 * Z14  ] >= 2.100000
c7: [ 1.1200000000000001 Z0 * Z1  + 0.3100000000000000 Z0 * Z4  + 1.1200000000000001 Z0 * Z7 -0.3600000000000000 Z0 * Z9  + 1.0000000000000000 Z0 * Z15  ] >= 2.300000
c8: [ 0.4500000000000000 Z0 * Z2  + 0.2600000000000000 Z0 * Z3 -1.1000000000000001 Z0 * Z4  + 0.5800000000000000 Z0 * Z5 -1.0300000000000000 Z0 * Z7  + 0.1000000000000000 Z0 * Z8  + 1.0000000000000000 Z0 * Z16  ] >= -1.500000
c9: [ -46.0000000000000000 Z0 * Z0 -6.0000000000000000 Z0 * Z1 -5.0000000000000000 Z0 * Z2 -7.0000000000000000 Z0 * Z3 -6.0000000000000000 Z0 * Z4 -6.0000000000000000 Z0 * Z5 -5.0000000000000000 Z0 * Z6 -8.0000000000000000 Z0 * Z7 -6.0000000000000000 Z0 * Z8 -5.0000000000000000 Z0 * Z9 -7.0000000000000000 Z0 * Z10 -5.0000000000000000 Z0 * Z11 -5.0000000000000000 Z0 * Z12 -5.0000000000000000 Z0 * Z13 -6.0000000000000000 Z0 * Z14 -5.0000000000000000 Z0 * Z15 -5.0000000000000000 Z0 * Z16  + 1.0000000000000000 Z0 * Z17 -7.0000000000000000 Z1 * Z1 -1.0000000000000000 Z1 * Z4 -1.0000000000000000 Z1 * Z7 -1.0000000000000000 Z1 * Z8 -1.0000000000000000 Z1 * Z16 -2.0000000000000000 Z1 * Z18 -1.0000000000000000 Z1 * Z21 -1.0000000000000000 Z1 * Z24 -1.0000000000000000 Z1 * Z25 -1.0000000000000000 Z1 * Z33 -6.0000000000000000 Z2 * Z2 -1.0000000000000000 Z2 * Z3 -1.0000000000000000 Z2 * Z7 -1.0000000000000000 Z2 * Z10 -2.0000000000000000 Z2 * Z19 -1.0000000000000000 Z2 * Z20 -1.0000000000000000 Z2 * Z24 -1.0000000000000000 Z2 * Z27 -8.0000000000000000 Z3 * Z3 -1.0000000000000000 Z3 * Z7 -1.0000000000000000 Z3 * Z9 -1.0000000000000000 Z3 * Z10 -1.0000000000000000 Z3 * Z14 -1.0000000000000000 Z3 * Z19 -2.0000000000000000 Z3 * Z20 -1.0000000000000000 Z3 * Z24 -1.0000000000000000 Z3 * Z26 -1.0000000000000000 Z3 * Z27 -1.0000000000000000 Z3 * Z31 -7.0000000000000000 Z4 * Z4 -1.0000000000000000 Z4 * Z7 -1.0000000000000000 Z4 * Z11 -1.0000000000000000 Z4 * Z15 -1.0000000000000000 Z4 * Z18 -2.0000000000000000 Z4 * Z21 -1.0000000000000000 Z4 * Z24 -1.0000000000000000 Z4 * Z28 -1.0000000000000000 Z4 * Z32 -7.0000000000000000 Z5 * Z5 -1.0000000000000000 Z5 * Z6 -1.0000000000000000 Z5 * Z10 -1.0000000000000000 Z5 * Z12 -1.0000000000000000 Z5 * Z16 -2.0000000000000000 Z5 * Z22 -1.0000000000000000 Z5 * Z23 -1.0000000000000000 Z5 * Z27 -1.0000000000000000 Z5 * Z29 -1.0000000000000000 Z5 * Z33 -6.0000000000000000 Z6 * Z6 -1.0000000000000000 Z6 * Z8 -1.0000000000000000 Z6 * Z15 -1.0000000000000000 Z6 * Z22 -2.0000000000000000 Z6 * Z23 -1.0000000000000000 Z6 * Z25 -1.0000000000000000 Z6 * Z32 -9.0000000000000000 Z7 * Z7 -1.0000000000000000 Z7 * Z11 -1.0000000000000000 Z7 * Z13 -1.0000000000000000 Z7 * Z18 -1.0000000000000000 Z7 * Z19 -1.0000000000000000 Z7 * Z20 -1.0000000000000000 Z7 * Z21 -2.0000000000000000 Z7 * Z24 -1.0000000000000000 Z7 * Z28 -1.0000000000000000 Z7 * Z30 -7.0000000000000000 Z8 * Z8 -1.0000000000000000 Z8 * Z10 -1.0000000000000000 Z8 * Z15 -1.0000000000000000 Z8 * Z18 -1.0000000000000000 Z8 * Z23 -2.0000000000000000 Z8 * Z25 -1.0000000000000000 Z8 * Z27 -1.0000000000000000 Z8 * Z32 -6.0000000000000000 Z9 * Z9 -1.0000000000000000 Z9 * Z12 -1.0000000000000000 Z9 * Z16 -1.0000000000000000 Z9 * Z20 -2.0000000000000000 Z9 * Z26 -1.0000000000000000 Z9 * Z29 -1.0000000000000000 Z9 * Z33 -8.0000000000000000 Z10 * Z10 -1.0000000000000000 Z10 * Z14 -1.0000000000000000 Z10 * Z19 -1.0000000000000000 Z10 * Z20 -1.0000000000000000 Z10 * Z22 -1.0000000000000000 Z10 * Z25 -2.0000000000000000 Z10 * Z27 -1.0000000000000000 Z10 * Z31 -6.0000000000000000 Z11 * Z11 -1.0000000000000000 Z11 * Z13 -1.0000000000000000 Z11 * Z21 -1.0000000000000000 Z11 * Z24 -2.0000000000000000 Z11 * Z28 -1.0000000000000000 Z11 * Z30 -6.0000000000000000 Z12 * Z12 -1.0000000000000000 Z12 * Z14 -1.0000000000000000 Z12 * Z22 -1.0000000000000000 Z12 * Z26 -2.0000000000000000 Z12 * Z29 -1.0000000000000000 Z12 * Z31 -6.0000000000000000 Z13 * Z13 -1.0000000000000000 Z13 * Z14 -1.0000000000000000 Z13 * Z24 -1.0000000000000000 Z13 * Z28 -2.0000000000000000 Z13 * Z30 -1.0000000000000000 Z13 * Z31 -7.0000000000000000 Z14 * Z14 -1.0000000000000000 Z14 * Z20 -1.0000000000000000 Z14 * Z27 -1.0000000000000000 Z14 * Z29 -1.0000000000000000 Z14 * Z30 -2.0000000000000000 Z14 * Z31 -6.0000000000000000 Z15 * Z15 -1.0000000000000000 Z15 * Z21 -1.0000000000000000 Z15 * Z23 -1.0000000000000000 Z15 * Z25 -2.0000000000000000 Z15 * Z32 -6.0000000000000000 Z16 * Z16 -1.0000000000000000 Z16 * Z18 -1.0000000000000000 Z16 * Z22 -1.0000000000000000 Z16 * Z26 -2.0000000000000000 Z16 * Z33 -1.0000000000000000 Z18 * Z18 -1.0000000000000000 Z18 * Z21 -1.0000000000000000 Z18 * Z24 -1.0000000000000000 Z18 * Z25 -1.0000000000000000 Z18 * Z33 -1.0000000000000000 Z19 * Z19 -1.0000000000000000 Z19 * Z20 -1.0000000000000000 Z19 * Z24 -1.0000000000000000 Z19 * Z27 -1.0000000000000000 Z20 * Z20 -1.0000000000000000 Z20 * Z24 -1.0000000000000000 Z20 * Z26 -1.0000000000000000 Z20 * Z27 -1.0000000000000000 Z20 * Z31 -1.0000000000000000 Z21 * Z21 -1.0000000000000000 Z21 * Z24 -1.0000000000000000 Z21 * Z28 -1.0000000000000000 Z21 * Z32 -1.0000000000000000 Z22 * Z22 -1.0000000000000000 Z22 * Z23 -1.0000000000000000 Z22 * Z27 -1.0000000000000000 Z22 * Z29 -1.0000000000000000 Z22 * Z33 -1.0000000000000000 Z23 * Z23 -1.0000000000000000 Z23 * Z25 -1.0000000000000000 Z23 * Z32 -1.0000000000000000 Z24 * Z24 -1.0000000000000000 Z24 * Z28 -1.0000000000000000 Z24 * Z30 -1.0000000000000000 Z25 * Z25 -1.0000000000000000 Z25 * Z27 -1.0000000000000000 Z25 * Z32 -1.0000000000000000 Z26 * Z26 -1.0000000000000000 Z26 * Z29 -1.0000000000000000 Z26 * Z33 -1.0000000000000000 Z27 * Z27 -1.0000000000000000 Z27 * Z31 -1.0000000000000000 Z28 * Z28 -1.0000000000000000 Z28 * Z30 -1.0000000000000000 Z29 * Z29 -1.0000000000000000 Z29 * Z31 -1.0000000000000000 Z30 * Z30 -1.0000000000000000 Z30 * Z31 -1.0000000000000000 Z31 * Z31 -1.0000000000000000 Z32 * Z32 -1.0000000000000000 Z33 * Z33  ] = 0.000000
ac1: Z0 - 1 = 0
ac2: [ 1.0000000000000000 Z0 * Z18 -1.0000000000000000 Z1 * Z1  ] = 0
ac3: [ 1.0000000000000000 Z0 * Z21 -1.0000000000000000 Z4 * Z4  ] = 0
ac4: [ 1.0000000000000000 Z0 * Z24 -1.0000000000000000 Z7 * Z7  ] = 0
ac5: [ 1.0000000000000000 Z0 * Z25 -1.0000000000000000 Z8 * Z8  ] = 0
ac6: [ 1.0000000000000000 Z0 * Z33 -1.0000000000000000 Z16 * Z16  ] = 0
ac7: [ 1.0000000000000000 Z0 * Z19 -1.0000000000000000 Z2 * Z2  ] = 0
ac8: [ 1.0000000000000000 Z0 * Z20 -1.0000000000000000 Z3 * Z3  ] = 0
ac9: [ 1.0000000000000000 Z0 * Z27 -1.0000000000000000 Z10 * Z10  ] = 0
ac10: [ 1.0000000000000000 Z0 * Z26 -1.0000000000000000 Z9 * Z9  ] = 0
ac11: [ 1.0000000000000000 Z0 * Z31 -1.0000000000000000 Z14 * Z14  ] = 0
ac12: [ 1.0000000000000000 Z0 * Z28 -1.0000000000000000 Z11 * Z11  ] = 0
ac13: [ 1.0000000000000000 Z0 * Z32 -1.0000000000000000 Z15 * Z15  ] = 0
ac14: [ 1.0000000000000000 Z0 * Z22 -1.0000000000000000 Z5 * Z5  ] = 0
ac15: [ 1.0000000000000000 Z0 * Z23 -1.0000000000000000 Z6 * Z6  ] = 0
ac16: [ 1.0000000000000000 Z0 * Z29 -1.0000000000000000 Z12 * Z12  ] = 0
ac17: [ 1.0000000000000000 Z0 * Z30 -1.0000000000000000 Z13 * Z13  ] = 0
Bounds
1 <= Z0 <= 1
0 <= Z1 <= 200.0000000000000000
0 <= Z2 <= 200.0000000000000000
0 <= Z3 <= 200.0000000000000000
0 <= Z4 <= 200.0000000000000000
0 <= Z5 <= 200.0000000000000000
0.0000000000000000 <= Z6 <= 200.0000000000000000
0.0000000000000000 <= Z7 <= 200.0000000000000000
0.0000000000000000 <= Z8 <= 200.0000000000000000
0.0000000000000000 <= Z9 <= 200.0000000000000000
0.0000000000000000 <= Z10 <= 200.0000000000000000
0.0000000000000000 <= Z11 <= 200.0000000000000000
0.0000000000000000 <= Z12 <= 200.0000000000000000
0.0000000000000000 <= Z13 <= 200.0000000000000000
0.0000000000000000 <= Z14 <= 200.0000000000000000
0.0000000000000000 <= Z15 <= 200.0000000000000000
0.0000000000000000 <= Z16 <= 200.0000000000000000
-100000000.0000000000000000 <= Z17 <= 100000000.0000000000000000
-20000000000.0000000000000000 <= Z18 <= 10000000000000000.0000000000000000
-20000000000.0000000000000000 <= Z19 <= 10000000000000000.0000000000000000
-20000000000.0000000000000000 <= Z20 <= 10000000000000000.0000000000000000
-20000000000.0000000000000000 <= Z21 <= 10000000000000000.0000000000000000
-20000000000.0000000000000000 <= Z22 <= 10000000000000000.0000000000000000
0.0000000000000000 <= Z23 <= 40000.0000000000000000
0.0000000000000000 <= Z24 <= 40000.0000000000000000
0.0000000000000000 <= Z25 <= 40000.0000000000000000
0.0000000000000000 <= Z26 <= 40000.0000000000000000
0.0000000000000000 <= Z27 <= 40000.0000000000000000
0.0000000000000000 <= Z28 <= 40000.0000000000000000
0.0000000000000000 <= Z29 <= 40000.0000000000000000
0.0000000000000000 <= Z30 <= 40000.0000000000000000
0.0000000000000000 <= Z31 <= 40000.0000000000000000
0.0000000000000000 <= Z32 <= 40000.0000000000000000
0.0000000000000000 <= Z33 <= 40000.0000000000000000
Generals
Z1 Z2 Z3 Z4 Z5 
End